p cnf 200 1110
-101 -24 0
-101 -93 0
-101 -97 0
-101 -98 0
-101 -76 0
-101 91 0
-101 -35 0
-101 -22 0
-101 -69 0
-101 -56 0
101 24 93 97 98 76 -91 35 22 69 56 0
-102 22 0
-102 44 0
-102 -23 0
-102 70 0
-102 -42 0
-102 66 0
-102 -75 0
-102 33 0
-102 83 0
-102 37 0
102 -22 -44 23 -70 42 -66 75 -33 -83 -37 0
-103 -50 0
-103 90 0
-103 52 0
-103 46 0
-103 -85 0
-103 66 0
-103 -53 0
-103 -64 0
-103 18 0
-103 32 0
103 50 -90 -52 -46 85 -66 53 64 -18 -32 0
-104 -93 0
-104 -43 0
-104 -1 0
-104 58 0
-104 16 0
-104 -27 0
-104 -68 0
-104 -84 0
-104 86 0
-104 41 0
104 93 43 1 -58 -16 27 68 84 -86 -41 0
-105 13 0
-105 89 0
-105 77 0
-105 32 0
-105 84 0
-105 -87 0
-105 -47 0
-105 -85 0
-105 90 0
-105 -6 0
105 -13 -89 -77 -32 -84 87 47 85 -90 6 0
-106 61 0
-106 24 0
-106 10 0
-106 41 0
-106 20 0
-106 -60 0
-106 -75 0
-106 -64 0
-106 -43 0
-106 -26 0
106 -61 -24 -10 -41 -20 60 75 64 43 26 0
-107 80 0
-107 -83 0
-107 87 0
-107 -33 0
-107 -18 0
-107 5 0
-107 -77 0
-107 31 0
-107 -73 0
-107 70 0
107 -80 83 -87 33 18 -5 77 -31 73 -70 0
-108 27 0
-108 90 0
-108 26 0
-108 -58 0
-108 91 0
-108 88 0
-108 98 0
-108 -9 0
-108 -69 0
-108 -31 0
108 -27 -90 -26 58 -91 -88 -98 9 69 31 0
-109 77 0
-109 -69 0
-109 29 0
-109 -53 0
-109 27 0
-109 -22 0
-109 -34 0
-109 -97 0
-109 -66 0
-109 -6 0
109 -77 69 -29 53 -27 22 34 97 66 6 0
-110 -32 0
-110 -19 0
-110 -49 0
-110 40 0
-110 71 0
-110 83 0
-110 87 0
-110 -36 0
-110 92 0
-110 -66 0
110 32 19 49 -40 -71 -83 -87 36 -92 66 0
101 102 103 104 105 106 107 108 109 110 0
-111 46 0
-111 64 0
-111 94 0
-111 -70 0
-111 80 0
-111 6 0
-111 38 0
-111 -22 0
-111 59 0
-111 -52 0
111 -46 -64 -94 70 -80 -6 -38 22 -59 52 0
-112 56 0
-112 -18 0
-112 94 0
-112 55 0
-112 -45 0
-112 1 0
-112 -8 0
-112 28 0
-112 64 0
-112 -69 0
112 -56 18 -94 -55 45 -1 8 -28 -64 69 0
-113 95 0
-113 84 0
-113 -97 0
-113 32 0
-113 94 0
-113 -40 0
-113 -92 0
-113 23 0
-113 -52 0
-113 6 0
113 -95 -84 97 -32 -94 40 92 -23 52 -6 0
-114 -51 0
-114 78 0
-114 -3 0
-114 -1 0
-114 71 0
-114 97 0
-114 73 0
-114 -64 0
-114 92 0
-114 -52 0
114 51 -78 3 1 -71 -97 -73 64 -92 52 0
-115 -89 0
-115 31 0
-115 -95 0
-115 -35 0
-115 38 0
-115 47 0
-115 -74 0
-115 18 0
-115 78 0
-115 2 0
115 89 -31 95 35 -38 -47 74 -18 -78 -2 0
-116 -32 0
-116 6 0
-116 -97 0
-116 -100 0
-116 -40 0
-116 49 0
-116 -19 0
-116 -11 0
-116 30 0
-116 -18 0
116 32 -6 97 100 40 -49 19 11 -30 18 0
-117 -40 0
-117 -76 0
-117 74 0
-117 14 0
-117 3 0
-117 87 0
-117 -50 0
-117 -63 0
-117 -94 0
-117 58 0
117 40 76 -74 -14 -3 -87 50 63 94 -58 0
-118 -52 0
-118 1 0
-118 83 0
-118 18 0
-118 -89 0
-118 -27 0
-118 -26 0
-118 8 0
-118 -38 0
-118 -14 0
118 52 -1 -83 -18 89 27 26 -8 38 14 0
-119 -93 0
-119 -5 0
-119 78 0
-119 -18 0
-119 86 0
-119 38 0
-119 -58 0
-119 70 0
-119 -59 0
-119 7 0
119 93 5 -78 18 -86 -38 58 -70 59 -7 0
-120 -67 0
-120 20 0
-120 1 0
-120 -44 0
-120 43 0
-120 5 0
-120 -75 0
-120 54 0
-120 -100 0
-120 -9 0
120 67 -20 -1 44 -43 -5 75 -54 100 9 0
111 112 113 114 115 116 117 118 119 120 0
-121 -80 0
-121 -94 0
-121 64 0
-121 -91 0
-121 -41 0
-121 -81 0
-121 -1 0
-121 -75 0
-121 51 0
-121 77 0
121 80 94 -64 91 41 81 1 75 -51 -77 0
-122 75 0
-122 -45 0
-122 -57 0
-122 -26 0
-122 -32 0
-122 -55 0
-122 46 0
-122 -17 0
-122 -8 0
-122 -52 0
122 -75 45 57 26 32 55 -46 17 8 52 0
-123 92 0
-123 75 0
-123 -39 0
-123 72 0
-123 -58 0
-123 82 0
-123 -24 0
-123 -27 0
-123 85 0
-123 -86 0
123 -92 -75 39 -72 58 -82 24 27 -85 86 0
-124 15 0
-124 -94 0
-124 90 0
-124 -81 0
-124 60 0
-124 11 0
-124 58 0
-124 -47 0
-124 9 0
-124 48 0
124 -15 94 -90 81 -60 -11 -58 47 -9 -48 0
-125 -24 0
-125 -42 0
-125 98 0
-125 -84 0
-125 -18 0
-125 87 0
-125 52 0
-125 29 0
-125 40 0
-125 50 0
125 24 42 -98 84 18 -87 -52 -29 -40 -50 0
-126 -17 0
-126 -28 0
-126 -71 0
-126 -29 0
-126 -30 0
-126 -67 0
-126 -23 0
-126 -54 0
-126 -57 0
-126 -82 0
126 17 28 71 29 30 67 23 54 57 82 0
-127 -37 0
-127 83 0
-127 -30 0
-127 56 0
-127 52 0
-127 -29 0
-127 90 0
-127 66 0
-127 15 0
-127 50 0
127 37 -83 30 -56 -52 29 -90 -66 -15 -50 0
-128 90 0
-128 85 0
-128 -53 0
-128 68 0
-128 64 0
-128 -83 0
-128 24 0
-128 61 0
-128 22 0
-128 -93 0
128 -90 -85 53 -68 -64 83 -24 -61 -22 93 0
-129 -10 0
-129 -25 0
-129 -72 0
-129 95 0
-129 -30 0
-129 -49 0
-129 -34 0
-129 -53 0
-129 80 0
-129 70 0
129 10 25 72 -95 30 49 34 53 -80 -70 0
-130 -96 0
-130 87 0
-130 -52 0
-130 -18 0
-130 -43 0
-130 -6 0
-130 86 0
-130 -54 0
-130 -90 0
-130 69 0
130 96 -87 52 18 43 6 -86 54 90 -69 0
121 122 123 124 125 126 127 128 129 130 0
-131 50 0
-131 39 0
-131 -84 0
-131 -7 0
-131 -29 0
-131 88 0
-131 -96 0
-131 -42 0
-131 70 0
-131 -75 0
131 -50 -39 84 7 29 -88 96 42 -70 75 0
-132 -83 0
-132 67 0
-132 91 0
-132 -34 0
-132 -41 0
-132 -78 0
-132 55 0
-132 -44 0
-132 26 0
-132 59 0
132 83 -67 -91 34 41 78 -55 44 -26 -59 0
-133 49 0
-133 -92 0
-133 8 0
-133 41 0
-133 -90 0
-133 17 0
-133 -32 0
-133 -55 0
-133 3 0
-133 -51 0
133 -49 92 -8 -41 90 -17 32 55 -3 51 0
-134 70 0
-134 81 0
-134 -44 0
-134 -72 0
-134 -80 0
-134 95 0
-134 38 0
-134 -36 0
-134 -83 0
-134 -15 0
134 -70 -81 44 72 80 -95 -38 36 83 15 0
-135 86 0
-135 -38 0
-135 69 0
-135 -85 0
-135 -15 0
-135 -43 0
-135 -3 0
-135 25 0
-135 91 0
-135 73 0
135 -86 38 -69 85 15 43 3 -25 -91 -73 0
-136 16 0
-136 73 0
-136 -21 0
-136 -66 0
-136 -76 0
-136 -70 0
-136 -12 0
-136 4 0
-136 -86 0
-136 -62 0
136 -16 -73 21 66 76 70 12 -4 86 62 0
-137 79 0
-137 -63 0
-137 -25 0
-137 -81 0
-137 94 0
-137 47 0
-137 86 0
-137 67 0
-137 87 0
-137 -45 0
137 -79 63 25 81 -94 -47 -86 -67 -87 45 0
-138 -64 0
-138 -99 0
-138 66 0
-138 5 0
-138 17 0
-138 38 0
-138 -22 0
-138 6 0
-138 -36 0
-138 -16 0
138 64 99 -66 -5 -17 -38 22 -6 36 16 0
-139 3 0
-139 -40 0
-139 -29 0
-139 -26 0
-139 90 0
-139 61 0
-139 -50 0
-139 33 0
-139 10 0
-139 13 0
139 -3 40 29 26 -90 -61 50 -33 -10 -13 0
-140 73 0
-140 45 0
-140 14 0
-140 5 0
-140 19 0
-140 -35 0
-140 48 0
-140 74 0
-140 -34 0
-140 89 0
140 -73 -45 -14 -5 -19 35 -48 -74 34 -89 0
131 132 133 134 135 136 137 138 139 140 0
-141 62 0
-141 67 0
-141 -25 0
-141 90 0
-141 -5 0
-141 36 0
-141 97 0
-141 -34 0
-141 -85 0
-141 -16 0
141 -62 -67 25 -90 5 -36 -97 34 85 16 0
-142 -29 0
-142 44 0
-142 88 0
-142 10 0
-142 65 0
-142 91 0
-142 -81 0
-142 -25 0
-142 28 0
-142 21 0
142 29 -44 -88 -10 -65 -91 81 25 -28 -21 0
-143 51 0
-143 4 0
-143 43 0
-143 -16 0
-143 15 0
-143 30 0
-143 -56 0
-143 -2 0
-143 -41 0
-143 -47 0
143 -51 -4 -43 16 -15 -30 56 2 41 47 0
-144 -35 0
-144 1 0
-144 23 0
-144 -9 0
-144 -24 0
-144 -55 0
-144 97 0
-144 83 0
-144 98 0
-144 66 0
144 35 -1 -23 9 24 55 -97 -83 -98 -66 0
-145 38 0
-145 -29 0
-145 96 0
-145 56 0
-145 -45 0
-145 -77 0
-145 -52 0
-145 -16 0
-145 57 0
-145 35 0
145 -38 29 -96 -56 45 77 52 16 -57 -35 0
-146 -27 0
-146 23 0
-146 -22 0
-146 -74 0
-146 65 0
-146 -52 0
-146 -95 0
-146 16 0
-146 -43 0
-146 92 0
146 27 -23 22 74 -65 52 95 -16 43 -92 0
-147 78 0
-147 -49 0
-147 63 0
-147 89 0
-147 -5 0
-147 -76 0
-147 -81 0
-147 -66 0
-147 48 0
-147 -60 0
147 -78 49 -63 -89 5 76 81 66 -48 60 0
-148 -85 0
-148 -53 0
-148 -32 0
-148 52 0
-148 46 0
-148 -24 0
-148 93 0
-148 -38 0
-148 1 0
-148 80 0
148 85 53 32 -52 -46 24 -93 38 -1 -80 0
-149 -61 0
-149 83 0
-149 3 0
-149 -32 0
-149 82 0
-149 25 0
-149 78 0
-149 11 0
-149 27 0
-149 -47 0
149 61 -83 -3 32 -82 -25 -78 -11 -27 47 0
-150 -43 0
-150 -65 0
-150 -75 0
-150 -4 0
-150 -33 0
-150 13 0
-150 -87 0
-150 56 0
-150 -36 0
-150 93 0
150 43 65 75 4 33 -13 87 -56 36 -93 0
141 142 143 144 145 146 147 148 149 150 0
-151 -48 0
-151 89 0
-151 99 0
-151 42 0
-151 -88 0
-151 -2 0
-151 95 0
-151 17 0
-151 -3 0
-151 -30 0
151 48 -89 -99 -42 88 2 -95 -17 3 30 0
-152 -56 0
-152 -91 0
-152 77 0
-152 96 0
-152 -20 0
-152 -62 0
-152 50 0
-152 -84 0
-152 34 0
-152 79 0
152 56 91 -77 -96 20 62 -50 84 -34 -79 0
-153 -14 0
-153 44 0
-153 -17 0
-153 -19 0
-153 -74 0
-153 80 0
-153 40 0
-153 65 0
-153 -47 0
-153 22 0
153 14 -44 17 19 74 -80 -40 -65 47 -22 0
-154 -89 0
-154 -85 0
-154 -38 0
-154 30 0
-154 60 0
-154 51 0
-154 7 0
-154 -34 0
-154 -40 0
-154 -52 0
154 89 85 38 -30 -60 -51 -7 34 40 52 0
-155 42 0
-155 95 0
-155 78 0
-155 -67 0
-155 88 0
-155 -85 0
-155 43 0
-155 -77 0
-155 -6 0
-155 -18 0
155 -42 -95 -78 67 -88 85 -43 77 6 18 0
-156 -54 0
-156 -94 0
-156 68 0
-156 8 0
-156 3 0
-156 -5 0
-156 -23 0
-156 -14 0
-156 -45 0
-156 -59 0
156 54 94 -68 -8 -3 5 23 14 45 59 0
-157 -67 0
-157 -62 0
-157 20 0
-157 96 0
-157 -65 0
-157 -5 0
-157 -75 0
-157 -15 0
-157 -38 0
-157 -36 0
157 67 62 -20 -96 65 5 75 15 38 36 0
-158 3 0
-158 -38 0
-158 21 0
-158 -1 0
-158 70 0
-158 -76 0
-158 -28 0
-158 32 0
-158 96 0
-158 -84 0
158 -3 38 -21 1 -70 76 28 -32 -96 84 0
-159 -55 0
-159 50 0
-159 -8 0
-159 24 0
-159 -99 0
-159 12 0
-159 -68 0
-159 -14 0
-159 -72 0
-159 48 0
159 55 -50 8 -24 99 -12 68 14 72 -48 0
-160 -12 0
-160 -29 0
-160 -99 0
-160 -23 0
-160 -38 0
-160 46 0
-160 77 0
-160 -17 0
-160 53 0
-160 -15 0
160 12 29 99 23 38 -46 -77 17 -53 15 0
151 152 153 154 155 156 157 158 159 160 0
-161 -37 0
-161 73 0
-161 72 0
-161 1 0
-161 97 0
-161 14 0
-161 -43 0
-161 -48 0
-161 -61 0
-161 -52 0
161 37 -73 -72 -1 -97 -14 43 48 61 52 0
-162 77 0
-162 2 0
-162 -35 0
-162 -64 0
-162 -29 0
-162 81 0
-162 92 0
-162 -75 0
-162 -71 0
-162 62 0
162 -77 -2 35 64 29 -81 -92 75 71 -62 0
-163 -15 0
-163 49 0
-163 -62 0
-163 -68 0
-163 -18 0
-163 -85 0
-163 34 0
-163 70 0
-163 -29 0
-163 71 0
163 15 -49 62 68 18 85 -34 -70 29 -71 0
-164 -39 0
-164 68 0
-164 36 0
-164 69 0
-164 20 0
-164 -17 0
-164 5 0
-164 50 0
-164 -37 0
-164 -15 0
164 39 -68 -36 -69 -20 17 -5 -50 37 15 0
-165 55 0
-165 98 0
-165 13 0
-165 5 0
-165 8 0
-165 23 0
-165 43 0
-165 -52 0
-165 27 0
-165 -69 0
165 -55 -98 -13 -5 -8 -23 -43 52 -27 69 0
-166 -4 0
-166 62 0
-166 90 0
-166 -6 0
-166 -71 0
-166 37 0
-166 36 0
-166 22 0
-166 -7 0
-166 84 0
166 4 -62 -90 6 71 -37 -36 -22 7 -84 0
-167 95 0
-167 -92 0
-167 -36 0
-167 88 0
-167 47 0
-167 -62 0
-167 30 0
-167 -100 0
-167 97 0
-167 44 0
167 -95 92 36 -88 -47 62 -30 100 -97 -44 0
-168 4 0
-168 -62 0
-168 -89 0
-168 41 0
-168 70 0
-168 -23 0
-168 80 0
-168 -56 0
-168 63 0
-168 2 0
168 -4 62 89 -41 -70 23 -80 56 -63 -2 0
-169 86 0
-169 64 0
-169 55 0
-169 24 0
-169 36 0
-169 92 0
-169 -57 0
-169 1 0
-169 -58 0
-169 -79 0
169 -86 -64 -55 -24 -36 -92 57 -1 58 79 0
-170 38 0
-170 -74 0
-170 42 0
-170 -81 0
-170 12 0
-170 56 0
-170 -35 0
-170 -51 0
-170 59 0
-170 58 0
170 -38 74 -42 81 -12 -56 35 51 -59 -58 0
161 162 163 164 165 166 167 168 169 170 0
-171 93 0
-171 -38 0
-171 25 0
-171 42 0
-171 32 0
-171 91 0
-171 -62 0
-171 -90 0
-171 -59 0
-171 60 0
171 -93 38 -25 -42 -32 -91 62 90 59 -60 0
-172 -75 0
-172 -23 0
-172 2 0
-172 69 0
-172 -6 0
-172 -67 0
-172 -42 0
-172 3 0
-172 -91 0
-172 -80 0
172 75 23 -2 -69 6 67 42 -3 91 80 0
-173 10 0
-173 79 0
-173 -57 0
-173 48 0
-173 61 0
-173 -55 0
-173 -54 0
-173 -41 0
-173 65 0
-173 15 0
173 -10 -79 57 -48 -61 55 54 41 -65 -15 0
-174 -58 0
-174 69 0
-174 -85 0
-174 -89 0
-174 96 0
-174 39 0
-174 -63 0
-174 62 0
-174 -16 0
-174 52 0
174 58 -69 85 89 -96 -39 63 -62 16 -52 0
-175 91 0
-175 -14 0
-175 85 0
-175 -11 0
-175 26 0
-175 6 0
-175 92 0
-175 45 0
-175 55 0
-175 93 0
175 -91 14 -85 11 -26 -6 -92 -45 -55 -93 0
-176 51 0
-176 -81 0
-176 -52 0
-176 -82 0
-176 27 0
-176 -67 0
-176 69 0
-176 80 0
-176 25 0
-176 61 0
176 -51 81 52 82 -27 67 -69 -80 -25 -61 0
-177 31 0
-177 58 0
-177 -36 0
-177 -93 0
-177 -34 0
-177 -42 0
-177 -4 0
-177 -51 0
-177 23 0
-177 -57 0
177 -31 -58 36 93 34 42 4 51 -23 57 0
-178 49 0
-178 89 0
-178 67 0
-178 73 0
-178 -53 0
-178 -42 0
-178 14 0
-178 -5 0
-178 69 0
-178 10 0
178 -49 -89 -67 -73 53 42 -14 5 -69 -10 0
-179 -87 0
-179 61 0
-179 100 0
-179 -40 0
-179 -74 0
-179 -10 0
-179 -62 0
-179 -38 0
-179 81 0
-179 -17 0
179 87 -61 -100 40 74 10 62 38 -81 17 0
-180 -82 0
-180 83 0
-180 -41 0
-180 -57 0
-180 44 0
-180 15 0
-180 -59 0
-180 40 0
-180 43 0
-180 99 0
180 82 -83 41 57 -44 -15 59 -40 -43 -99 0
171 172 173 174 175 176 177 178 179 180 0
-181 -64 0
-181 -91 0
-181 35 0
-181 -78 0
-181 -55 0
-181 69 0
-181 100 0
-181 -53 0
-181 -29 0
-181 -22 0
181 64 91 -35 78 55 -69 -100 53 29 22 0
-182 -100 0
-182 -69 0
-182 -30 0
-182 75 0
-182 64 0
-182 37 0
-182 39 0
-182 -84 0
-182 1 0
-182 -71 0
182 100 69 30 -75 -64 -37 -39 84 -1 71 0
-183 41 0
-183 73 0
-183 13 0
-183 -85 0
-183 16 0
-183 12 0
-183 -30 0
-183 -68 0
-183 -51 0
-183 -11 0
183 -41 -73 -13 85 -16 -12 30 68 51 11 0
-184 96 0
-184 52 0
-184 94 0
-184 -44 0
-184 -7 0
-184 66 0
-184 23 0
-184 -27 0
-184 2 0
-184 -40 0
184 -96 -52 -94 44 7 -66 -23 27 -2 40 0
-185 87 0
-185 -50 0
-185 -53 0
-185 20 0
-185 31 0
-185 -37 0
-185 83 0
-185 -21 0
-185 40 0
-185 94 0
185 -87 50 53 -20 -31 37 -83 21 -40 -94 0
-186 28 0
-186 -100 0
-186 53 0
-186 1 0
-186 76 0
-186 -27 0
-186 80 0
-186 -72 0
-186 25 0
-186 -49 0
186 -28 100 -53 -1 -76 27 -80 72 -25 49 0
-187 73 0
-187 -16 0
-187 17 0
-187 71 0
-187 -33 0
-187 -98 0
-187 37 0
-187 64 0
-187 -3 0
-187 -91 0
187 -73 16 -17 -71 33 98 -37 -64 3 91 0
-188 38 0
-188 26 0
-188 -74 0
-188 59 0
-188 -55 0
-188 62 0
-188 45 0
-188 21 0
-188 -73 0
-188 48 0
188 -38 -26 74 -59 55 -62 -45 -21 73 -48 0
-189 -49 0
-189 -4 0
-189 69 0
-189 -11 0
-189 -1 0
-189 83 0
-189 5 0
-189 -85 0
-189 77 0
-189 -38 0
189 49 4 -69 11 1 -83 -5 85 -77 38 0
-190 -35 0
-190 -36 0
-190 -58 0
-190 -82 0
-190 11 0
-190 -14 0
-190 59 0
-190 -25 0
-190 81 0
-190 -70 0
190 35 36 58 82 -11 14 -59 25 -81 70 0
181 182 183 184 185 186 187 188 189 190 0
-191 -16 0
-191 67 0
-191 12 0
-191 31 0
-191 83 0
-191 89 0
-191 23 0
-191 -44 0
-191 -66 0
-191 94 0
191 16 -67 -12 -31 -83 -89 -23 44 66 -94 0
-192 11 0
-192 -88 0
-192 53 0
-192 -77 0
-192 2 0
-192 -16 0
-192 -61 0
-192 -30 0
-192 -73 0
-192 -19 0
192 -11 88 -53 77 -2 16 61 30 73 19 0
-193 -10 0
-193 26 0
-193 23 0
-193 64 0
-193 -61 0
-193 -22 0
-193 19 0
-193 -46 0
-193 -87 0
-193 -79 0
193 10 -26 -23 -64 61 22 -19 46 87 79 0
-194 -41 0
-194 -3 0
-194 28 0
-194 79 0
-194 -25 0
-194 90 0
-194 -52 0
-194 2 0
-194 55 0
-194 39 0
194 41 3 -28 -79 25 -90 52 -2 -55 -39 0
-195 46 0
-195 57 0
-195 -72 0
-195 -82 0
-195 -3 0
-195 -99 0
-195 -47 0
-195 -59 0
-195 -34 0
-195 -90 0
195 -46 -57 72 82 3 99 47 59 34 90 0
-196 9 0
-196 35 0
-196 -91 0
-196 -54 0
-196 -67 0
-196 89 0
-196 3 0
-196 -13 0
-196 51 0
-196 -2 0
196 -9 -35 91 54 67 -89 -3 13 -51 2 0
-197 17 0
-197 68 0
-197 35 0
-197 53 0
-197 -92 0
-197 60 0
-197 -8 0
-197 12 0
-197 -58 0
-197 13 0
197 -17 -68 -35 -53 92 -60 8 -12 58 -13 0
-198 20 0
-198 -68 0
-198 -10 0
-198 -58 0
-198 28 0
-198 -80 0
-198 -78 0
-198 42 0
-198 86 0
-198 -33 0
198 -20 68 10 58 -28 80 78 -42 -86 33 0
-199 -80 0
-199 -56 0
-199 67 0
-199 -75 0
-199 -69 0
-199 95 0
-199 -1 0
-199 6 0
-199 5 0
-199 50 0
199 80 56 -67 75 69 -95 1 -6 -5 -50 0
-200 -14 0
-200 17 0
-200 -36 0
-200 37 0
-200 -91 0
-200 99 0
-200 -48 0
-200 22 0
-200 38 0
-200 -8 0
200 14 -17 36 -37 91 -99 48 -22 -38 8 0
191 192 193 194 195 196 197 198 199 200 0
